proyfinal/src/viki/013/andrea/andrea-localstore/experimentInOfficeAgust.take6/worker_10/85e65bbc-7344-4d3f-9726-a3605db17213.als.cnf.out
Reading from standard input... Use '--help' for help.
============================[ Problem Statistics ]=============================
|                                                                             |
|  Number of variables:         87638                                         |
|  Number of clauses:          161767                                         |
|  Parse time:                   0.04 s                                       |
|                                                                             |
============================[ Search Statistics ]==============================
| Conflicts |          ORIGINAL         |          LEARNT          | Progress |
|           |    Vars  Clauses Literals |    Limit  Clauses Lit/Cl |          |
===============================================================================
|       100 |   63751   110136   275136 |    40383      100     18 | 27.256 % |
|       250 |   63733   110062   274965 |    44421      249     18 | 27.277 % |
|       475 |   63733   110062   274965 |    48863      474     43 | 27.277 % |
|       812 |   63733   110062   274965 |    53750      811     67 | 27.277 % |
|      1318 |   63733   110062   274965 |    59125     1317     77 | 27.277 % |
|      2077 |   63733   110062   274965 |    65037     2076     71 | 27.277 % |
|      3216 |   63714   109944   274704 |    71541     3209    113 | 27.299 % |
|      4924 |   63422   108778   271961 |    78695     4899    107 | 27.632 % |
|      7486 |   63396   108670   271714 |    86564     7460    117 | 27.662 % |
|     11330 |   63315   108305   270889 |    95221    10448    112 | 27.754 % |
|     17096 |   63200   107935   270011 |   104743    16205    123 | 27.885 % |
===============================================================================
restarts              : 63
conflicts             : 18688          (5486 /sec)
decisions             : 69385          (0.00 % random) (20367 /sec)
propagations          : 31292932       (9185594 /sec)
conflict literals     : 2329498        (45.24 % deleted)
Memory used           : 45.44 MB
CPU time              : 3.40674 s

INDETERMINATE
